Normalized Data/p01_3_normalized_split0.vrp
NAME:p01_3_NORMALIZED_split
BEST_KNOWN: 0
COMMENT: 0
DIMENSION: 203
CAPACITY: 100
EDGE_WEIGHT_FORMAT: FUNCTION
EDGE_WEIGHT_TYPE: EXACT_2D
NODE_COORD_SECTION
1 0.00000 0.00000
2 -48 23
3 18 29
4 18 29
5 18 29
6 48 -6
7 48 -6
8 48 -6
9 48 -6
10 48 -6
11 29 -34
12 29 -34
13 29 -34
14 29 -34
15 29 -34
16 -45 28
17 -45 28
18 -45 28
19 -45 28
20 -45 28
21 -45 28
22 43 -5
23 43 -5
24 -10 5
25 -10 5
26 -10 5
27 -10 5
28 -10 5
29 1 28
30 1 28
31 1 28
32 1 28
33 24 3
34 24 3
35 5 1
36 5 1
37 5 1
38 5 1
39 5 1
40 -15 -12
41 -15 -12
42 -15 -12
43 5 -13
44 5 -13
45 5 -13
46 5 -13
47 5 -13
48 -12 -9
49 -12 -9
50 -12 -9
51 7 8
52 7 8
53 7 8
54 7 8
55 -15 23
56 -15 23
57 -15 23
58 13 -8
59 13 -8
60 13 -8
61 13 -8
62 13 -8
63 -7 -39
64 -7 -39
65 -7 -39
66 -7 -39
67 -7 -39
68 10 -28
69 10 -28
70 10 -28
71 10 -28
72 10 -28
73 -40 1
74 -40 1
75 -40 1
76 -40 1
77 -40 1
78 -40 1
79 -13 1
80 -13 1
81 -13 1
82 -13 1
83 3 -40
84 3 -40
85 3 -40
86 3 -40
87 13 -19
88 13 -19
89 13 -19
90 13 -19
91 13 -19
92 13 -19
93 -43 -30
94 -43 -30
95 -43 -30
96 27 25
97 27 25
98 27 25
99 14 23
100 14 23
101 14 23
102 -21 -2
103 -21 -2
104 -21 -2
105 15 -4
106 15 -4
107 15 -4
108 15 -4
109 15 -4
110 -8 -41
111 -8 -41
112 -8 -41
113 -8 -41
114 -28 8
115 -28 8
116 -28 8
117 -28 8
118 -28 8
119 -28 8
120 -28 8
121 -5 -8
122 -5 -8
123 -50 -10
124 -50 -10
125 -50 -10
126 44 46
127 44 46
128 44 46
129 44 46
130 -41 21
131 -41 21
132 -41 21
133 -26 -26
134 -26 -26
135 -26 -26
136 -26 -26
137 -26 -26
138 -26 -26
139 -43 32
140 -43 32
141 32 -40
142 32 -40
143 32 -40
144 32 -40
145 -33 25
146 -33 25
147 -33 25
148 -33 25
149 -33 25
150 -33 25
151 39 -28
152 39 -28
153 39 -28
154 39 -28
155 39 -28
156 35 -32
157 35 -32
158 35 -32
159 35 -32
160 35 -32
161 35 -32
162 35 -32
163 40 49
164 40 49
165 40 49
166 -42 2
167 -42 2
168 16 -3
169 16 -3
170 16 -3
171 -20 33
172 -20 33
173 -20 33
174 27 -34
175 27 -34
176 27 -34
177 27 -34
178 27 -34
179 27 -34
180 21 16
181 21 16
182 21 16
183 21 16
184 38 -45
185 38 -45
186 38 -45
187 38 -45
188 38 -45
189 38 -45
190 12 31
191 12 31
192 12 31
193 12 31
194 12 31
195 12 31
196 45 22
197 45 22
198 45 22
199 9 -39
200 9 -39
201 -10 28
202 -10 28
203 -10 28
DEMAND_SECTION
1 0
2 20
3 20
4 10
5 5
6 20
7 5
8 1
9 1
10 1
11 20
12 10
13 1
14 1
15 1
16 20
17 5
18 1
19 1
20 1
21 1
22 20
23 20
24 20
25 20
26 1
27 1
28 1
29 20
30 10
31 5
32 1
33 20
34 1
35 20
36 5
37 1
38 1
39 1
40 20
41 5
42 1
43 20
44 5
45 1
46 1
47 1
48 20
49 20
50 1
51 20
52 20
53 5
54 1
55 10
56 5
57 1
58 10
59 1
60 1
61 1
62 1
63 20
64 10
65 5
66 1
67 1
68 20
69 20
70 1
71 1
72 1
73 10
74 5
75 1
76 1
77 1
78 1
79 20
80 10
81 1
82 1
83 20
84 10
85 1
86 1
87 20
88 20
89 5
90 1
91 1
92 1
93 20
94 20
95 1
96 20
97 20
98 1
99 20
100 20
101 5
102 20
103 1
104 1
105 20
106 10
107 5
108 1
109 1
110 20
111 1
112 1
113 1
114 20
115 10
116 5
117 1
118 1
119 1
120 1
121 20
122 1
123 20
124 20
125 1
126 20
127 10
128 5
129 1
130 20
131 20
132 1
133 20
134 20
135 5
136 1
137 1
138 1
139 10
140 5
141 10
142 5
143 1
144 1
145 10
146 5
147 1
148 1
149 1
150 1
151 20
152 5
153 1
154 1
155 1
156 20
157 10
158 5
159 1
160 1
161 1
162 1
163 20
164 5
165 1
166 10
167 5
168 20
169 20
170 10
171 20
172 1
173 1
174 20
175 5
176 1
177 1
178 1
179 1
180 20
181 20
182 1
183 1
184 20
185 20
186 5
187 1
188 1
189 1
190 20
191 20
192 5
193 1
194 1
195 1
196 20
197 20
198 10
199 20
200 20
201 20
202 1
203 1
DEPOT_SECTION
1
-1
EOF