Normalized Data/p01_3_normalized_split0.sol
202 -4 3 2 163 162 164 127 126 125 128 -14 12 10 13 11 188 185 184 183 186 187 140 143 142 141 -23 129 131 130 118 119 115 113 117 114 116 -24 78 39 48 47 -26 27 25 148 146 145 144 147 149 138 139 19 20 18 17 16 15 1 80 81 79 -31 30 29 28 200 201 202 172 171 170 54 56 55 -33 32 9 5 6 7 8 22 21 169 -35 196 197 195 96 95 97 -37 38 34 36 167 168 106 104 107 105 108 -49 40 41 93 94 92 132 135 136 134 133 137 -50 53 51 52 181 179 182 180 -57 58 60 61 59 71 67 70 68 69 199 198 -63 66 62 64 65 112 110 111 109 84 82 85 83 -74 77 72 75 73 76 165 166 122 123 124 101 103 102 -91 87 89 90 86 88 42 43 46 44 45 120 121 -100 99 98 193 190 191 189 192 194 -152 151 153 154 150 161 160 155 158 157 156 159 174 176 173 177 178 175 0 





OBJ=
1512.045
BEST_KNOWN=
0.000